 proc title ; proc chmatrix occasions= 23 groups= 6 etype= POPAN Nodes= 101 ICMeans NoHist hist= 84
 ; time interval 0.492772667542707 0.525624178712221 0.492772667542707 0.492772667542707
 0.492772667542707 0.525624178712221 0.492772667542707 0.525624178712221 0.492772667542707
 0.821287779237845 6.96452036793692 1.01839684625493 0.985545335085414 0.68988173455979
 0.492772667542707 0.525624178712221 0.492772667542707 8.83705650459921 0.985545335085414
 1.01839684625493 1.01839684625493 0.985545335085414 ;
glabel(1)=valleyR.altitude1;
glabel(2)=valleyS.altitude1;
glabel(3)=valleyR.altitude2;
glabel(4)=valleyS.altitude2;
glabel(5)=valleyR.altitude3;
glabel(6)=valleyS.altitude3;
 00000000000000000000001 0 0 2 0 0 0;
 00000000000000000000010 0 0 0 0 6 0;
 00000000000000000000100 0 0 0 0 0 1;
 00000000000000000000100 0 0 0 0 9 0;
 00000000000000000001100 0 0 0 0 0 2;
 00000000000000000001100 0 0 0 0 1 0;
 00000000000000000010000 0 0 0 0 6 0;
 00000000000000000010000 0 0 2 0 0 0;
 00000000000000000010100 0 0 0 0 1 0;
 00000000000000000011000 0 0 0 0 3 0;
 00000000000000000011000 0 0 1 0 0 0;
 00000000000000000100000 0 0 0 0 2 0;
 00000000000000000100000 0 0 1 0 0 0;
 00000000000000000100001 0 0 1 0 0 0;
 00000000000000001000000 0 0 0 0 0 1;
 00000000000000001000000 0 0 0 0 2 0;
 00000000000000001000000 2 0 0 0 0 0;
 00000000000000010000000 0 0 0 0 0 1;
 00000000000000010000000 0 0 0 0 3 0;
 00000000000000011000000 0 0 0 0 2 0;
 00000000000000011010000 0 0 0 0 1 0;
 00000000000000100000000 0 0 0 0 5 0;
 00000000000000100000000 0 1 0 0 0 0;
 00000000000000110000000 0 0 0 0 0 1;
 00000000000001100000000 0 0 1 0 0 0;
 00000000000010000000000 0 0 0 0 0 1;
 00000000000010000000000 0 0 0 0 2 0;
 00000000000010110000000 0 0 0 0 0 1;
 00000000000011001000000 0 0 0 0 0 1;
 00000000000100000000000 0 0 0 0 0 1;
 00000000000100000000000 0 0 0 0 6 0;
 00000000000100000000000 0 0 0 2 0 0;
 00000000000100000000000 0 0 1 0 0 0;
 00000000000100000000000 2 0 0 0 0 0;
 00000000000100001000000 1 0 0 0 0 0;
 00000000000101000010000 0 0 0 0 1 0;
 00000000000101100000000 0 0 0 0 1 0;
 00000000000101111000000 0 0 0 0 1 0;
 00000000001000000000000 0 0 1 0 0 0;
 00000000001010000000000 1 0 0 0 0 0;
 00000000010000000000000 0 0 0 0 0 3;
 00000000010000101000000 0 0 0 0 0 1;
 00000000010010000000000 1 0 0 0 0 0;
 00000000100000000000000 0 0 0 0 0 2;
 00000000100000000000000 0 0 0 0 1 0;
 00000000100000000000000 1 0 0 0 0 0;
 00000000100100000000000 0 0 0 0 1 0;
 00000000110000000000000 0 0 0 0 0 1;
 00000000110000001000000 0 0 0 0 1 0;
 00000001000000000000000 0 0 0 0 0 2;
 00000001100000000000000 0 0 0 0 1 0;
 00000010000000000000000 0 0 0 0 1 0;
 00000010000000000000000 0 2 0 0 0 0;
 00000010000000010001100 0 0 0 0 1 0;
 00000010000100000000000 0 0 1 0 0 0;
 00000010010000000000000 0 0 0 0 1 0;
 00000011000000000000000 0 0 0 0 0 1;
 00000011000000000000000 1 0 0 0 0 0;
 00000011100000001000000 0 0 0 0 1 0;
 00000110000000001000000 0 0 0 1 0 0;
 00000110000011001000000 0 0 0 0 0 1;
 00001000000000000000000 0 0 0 0 1 0;
 00001000000000000000000 0 1 0 0 0 0;
 00001000000000000000000 1 0 0 0 0 0;
 00001000000100000000000 0 0 1 0 0 0;
 00010000000000000000000 0 0 0 0 1 0;
 00010000000000000000000 0 0 0 1 0 0;
 00010000000001000000000 0 0 0 0 1 0;
 00011000000000000000000 0 1 0 0 0 0;
 00100000000000001000000 0 0 0 0 1 0;
 00100111000100000000000 0 0 0 0 1 0;
 00111110000011111000000 0 0 0 0 0 1;
 01000000000000000000000 0 0 0 0 2 0;
 01000000000000001000000 0 0 0 0 1 0;
 01000100000000001000000 0 0 0 0 1 0;
 01000101000000000000000 0 0 0 0 1 0;
 01010000100000000000000 0 0 0 0 0 1;
 01111110000000001000000 0 0 0 0 1 0;
 10000000000000000000000 0 0 0 0 1 0;
 10000000000000000000000 0 0 2 0 0 0;
 10000010000000000000000 0 0 0 0 1 0;
 10001000000000000000000 1 0 0 0 0 0;
 10001000100000001000000 1 0 0 0 0 0;
 11100110000000000000000 0 0 0 0 1 0;
proc estimate link=Parm-Specific NOLOOP varest=2ndPart    ;
model={ full_pent_seasonal };
group=1 Phi    rows=1 cols=22 Square ;
1 1 1 1 1 1 1 1 1 1 1 2 1 1 1 1 1 1 2 1 1 1 ;
group=2 Phi    rows=1 cols=22 Square ;
3 3 3 3 3 3 3 3 3 3 3 4 3 3 3 3 3 3 4 3 3 3 ;
group=3 Phi    rows=1 cols=22 Square ;
5 5 5 5 5 5 5 5 5 5 5 6 5 5 5 5 5 5 6 5 5 5 ;
group=4 Phi    rows=1 cols=22 Square ;
7 7 7 7 7 7 7 7 7 7 7 8 7 7 7 7 7 7 8 7 7 7 ;
group=5 Phi    rows=1 cols=22 Square ;
9 9 9 9 9 9 9 9 9 9 9 10 9 9 9 9 9 9 10 9 9 9 ;
group=6 Phi    rows=1 cols=22 Square ;
11 11 11 11 11 11 11 11 11 11 11 12 11 11 11 11 11 11 12 11 11 11 ;
group=1 p    rows=1 cols=23 Square ;
13 14 15 16 17 18 19 20 21 22 23 24 25 26 27 28 29 30 31 32 33 34 35 ;
group=2 p    rows=1 cols=23 Square ;
13 14 15 16 17 18 19 20 21 22 23 24 25 26 27 28 29 30 31 32 33 34 35 ;
group=3 p    rows=1 cols=23 Square ;
13 14 15 16 17 18 19 20 21 22 23 24 25 26 27 28 29 30 31 32 33 34 35 ;
group=4 p    rows=1 cols=23 Square ;
13 14 15 16 17 18 19 20 21 22 23 24 25 26 27 28 29 30 31 32 33 34 35 ;
group=5 p    rows=1 cols=23 Square ;
13 14 15 16 17 18 19 20 21 22 23 24 25 26 27 28 29 30 31 32 33 34 35 ;
group=6 p    rows=1 cols=23 Square ;
13 14 15 16 17 18 19 20 21 22 23 24 25 26 27 28 29 30 31 32 33 34 35 ;
group=1 pent    rows=1 cols=22 Square ;
42 43 44 45 46 47 48 49 50 51 52 53 54 55 56 57 58 59 60 61 62 63 ;
group=2 pent    rows=1 cols=22 Square ;
64 65 66 67 68 69 70 71 72 73 74 75 76 77 78 79 80 81 82 83 84 85 ;
group=3 pent    rows=1 cols=22 Square ;
86 87 88 89 90 91 92 93 94 95 96 97 98 99 100 101 102 103 104 105 106 107 ;
group=4 pent    rows=1 cols=22 Square ;
108 109 110 111 112 113 114 115 116 117 118 119 120 121 122 123 124 125 126 127 128 129 ;
group=5 pent    rows=1 cols=22 Square ;
130 131 132 133 134 135 136 137 138 139 140 141 142 143 144 145 146 147 148 149 150 151 ;
group=6 pent    rows=1 cols=22 Square ;
152 153 154 155 156 157 158 159 160 161 162 163 164 165 166 167 168 169 170 171 172 173 ;
group=1 N    rows=1 cols=1 Square ;
36 ;
group=2 N    rows=1 cols=1 Square ;
37 ;
group=3 N    rows=1 cols=1 Square ;
38 ;
group=4 N    rows=1 cols=1 Square ;
39 ;
group=5 N    rows=1 cols=1 Square ;
40 ;
group=6 N    rows=1 cols=1 Square ;
41 ;
design matrix constraints=173 covariates=37;
1 0 0 0 0 0 0 0 0 0 0 0 0 0 0 0 0 0 0 0 0 0 0 0 0 0 0 0 0 0 0 0 0 0 0 0 0;
1 1 0 0 0 0 0 0 0 0 0 0 0 0 0 0 0 0 0 0 0 0 0 0 0 0 0 0 0 0 0 0 0 0 0 0 0;
1 0 1 0 0 0 0 0 0 0 0 0 0 0 0 0 0 0 0 0 0 0 0 0 0 0 0 0 0 0 0 0 0 0 0 0 0;
1 1 1 0 0 1 0 0 0 0 0 0 0 0 0 0 0 0 0 0 0 0 0 0 0 0 0 0 0 0 0 0 0 0 0 0 0;
1 0 0 1 0 0 0 0 0 0 0 0 0 0 0 0 0 0 0 0 0 0 0 0 0 0 0 0 0 0 0 0 0 0 0 0 0;
1 1 0 1 0 0 0 0 0 0 0 0 0 0 0 0 0 0 0 0 0 0 0 0 0 0 0 0 0 0 0 0 0 0 0 0 0;
1 0 1 1 0 0 0 0 0 0 0 0 0 0 0 0 0 0 0 0 0 0 0 0 0 0 0 0 0 0 0 0 0 0 0 0 0;
1 1 1 1 0 1 0 0 0 0 0 0 0 0 0 0 0 0 0 0 0 0 0 0 0 0 0 0 0 0 0 0 0 0 0 0 0;
1 0 0 0 1 0 0 0 0 0 0 0 0 0 0 0 0 0 0 0 0 0 0 0 0 0 0 0 0 0 0 0 0 0 0 0 0;
1 1 0 0 1 0 0 0 0 0 0 0 0 0 0 0 0 0 0 0 0 0 0 0 0 0 0 0 0 0 0 0 0 0 0 0 0;
1 0 1 0 1 0 0 0 0 0 0 0 0 0 0 0 0 0 0 0 0 0 0 0 0 0 0 0 0 0 0 0 0 0 0 0 0;
1 1 1 0 1 1 0 0 0 0 0 0 0 0 0 0 0 0 0 0 0 0 0 0 0 0 0 0 0 0 0 0 0 0 0 0 0;
0 0 0 0 0 0 1 0 0 0 0 0 0 0 0 0 0 0 0 0 0 0 0 0 0 0 0 0 0 0 0 0 0 0 0 0 0;
0 0 0 0 0 0 1 1 0 0 0 0 0 0 0 0 0 0 0 0 0 0 0 0 0 0 0 0 0 0 0 0 0 0 0 0 0;
0 0 0 0 0 0 1 0 1 0 0 0 0 0 0 0 0 0 0 0 0 0 0 0 0 0 0 0 0 0 0 0 0 0 0 0 0;
0 0 0 0 0 0 1 0 0 1 0 0 0 0 0 0 0 0 0 0 0 0 0 0 0 0 0 0 0 0 0 0 0 0 0 0 0;
0 0 0 0 0 0 1 0 0 0 1 0 0 0 0 0 0 0 0 0 0 0 0 0 0 0 0 0 0 0 0 0 0 0 0 0 0;
0 0 0 0 0 0 1 0 0 0 0 1 0 0 0 0 0 0 0 0 0 0 0 0 0 0 0 0 0 0 0 0 0 0 0 0 0;
0 0 0 0 0 0 1 0 0 0 0 0 1 0 0 0 0 0 0 0 0 0 0 0 0 0 0 0 0 0 0 0 0 0 0 0 0;
0 0 0 0 0 0 1 0 0 0 0 0 0 1 0 0 0 0 0 0 0 0 0 0 0 0 0 0 0 0 0 0 0 0 0 0 0;
0 0 0 0 0 0 1 0 0 0 0 0 0 0 1 0 0 0 0 0 0 0 0 0 0 0 0 0 0 0 0 0 0 0 0 0 0;
0 0 0 0 0 0 1 0 0 0 0 0 0 0 0 1 0 0 0 0 0 0 0 0 0 0 0 0 0 0 0 0 0 0 0 0 0;
0 0 0 0 0 0 1 0 0 0 0 0 0 0 0 0 1 0 0 0 0 0 0 0 0 0 0 0 0 0 0 0 0 0 0 0 0;
0 0 0 0 0 0 1 0 0 0 0 0 0 0 0 0 0 1 0 0 0 0 0 0 0 0 0 0 0 0 0 0 0 0 0 0 0;
0 0 0 0 0 0 1 0 0 0 0 0 0 0 0 0 0 0 1 0 0 0 0 0 0 0 0 0 0 0 0 0 0 0 0 0 0;
0 0 0 0 0 0 1 0 0 0 0 0 0 0 0 0 0 0 0 1 0 0 0 0 0 0 0 0 0 0 0 0 0 0 0 0 0;
0 0 0 0 0 0 1 0 0 0 0 0 0 0 0 0 0 0 0 0 1 0 0 0 0 0 0 0 0 0 0 0 0 0 0 0 0;
0 0 0 0 0 0 1 0 0 0 0 0 0 0 0 0 0 0 0 0 0 1 0 0 0 0 0 0 0 0 0 0 0 0 0 0 0;
0 0 0 0 0 0 1 0 0 0 0 0 0 0 0 0 0 0 0 0 0 0 1 0 0 0 0 0 0 0 0 0 0 0 0 0 0;
0 0 0 0 0 0 1 0 0 0 0 0 0 0 0 0 0 0 0 0 0 0 0 1 0 0 0 0 0 0 0 0 0 0 0 0 0;
0 0 0 0 0 0 1 0 0 0 0 0 0 0 0 0 0 0 0 0 0 0 0 0 1 0 0 0 0 0 0 0 0 0 0 0 0;
0 0 0 0 0 0 1 0 0 0 0 0 0 0 0 0 0 0 0 0 0 0 0 0 0 1 0 0 0 0 0 0 0 0 0 0 0;
0 0 0 0 0 0 1 0 0 0 0 0 0 0 0 0 0 0 0 0 0 0 0 0 0 0 1 0 0 0 0 0 0 0 0 0 0;
0 0 0 0 0 0 1 0 0 0 0 0 0 0 0 0 0 0 0 0 0 0 0 0 0 0 0 1 0 0 0 0 0 0 0 0 0;
0 0 0 0 0 0 1 0 0 0 0 0 0 0 0 0 0 0 0 0 0 0 0 0 0 0 0 0 1 0 0 0 0 0 0 0 0;
0 0 0 0 0 0 0 0 0 0 0 0 0 0 0 0 0 0 0 0 0 0 0 0 0 0 0 0 0 0 0 1 0 0 0 0 0;
0 0 0 0 0 0 0 0 0 0 0 0 0 0 0 0 0 0 0 0 0 0 0 0 0 0 0 0 0 0 0 1 1 0 0 0 0;
0 0 0 0 0 0 0 0 0 0 0 0 0 0 0 0 0 0 0 0 0 0 0 0 0 0 0 0 0 0 0 1 0 1 0 0 0;
0 0 0 0 0 0 0 0 0 0 0 0 0 0 0 0 0 0 0 0 0 0 0 0 0 0 0 0 0 0 0 1 0 0 1 0 0;
0 0 0 0 0 0 0 0 0 0 0 0 0 0 0 0 0 0 0 0 0 0 0 0 0 0 0 0 0 0 0 1 0 0 0 1 0;
0 0 0 0 0 0 0 0 0 0 0 0 0 0 0 0 0 0 0 0 0 0 0 0 0 0 0 0 0 0 0 1 0 0 0 0 1;
0 0 0 0 0 0 0 0 0 0 0 0 0 0 0 0 0 0 0 0 0 0 0 0 0 0 0 0 0 1 0 0 0 0 0 0 0;
0 0 0 0 0 0 0 0 0 0 0 0 0 0 0 0 0 0 0 0 0 0 0 0 0 0 0 0 0 1 0 0 0 0 0 0 0;
0 0 0 0 0 0 0 0 0 0 0 0 0 0 0 0 0 0 0 0 0 0 0 0 0 0 0 0 0 1 0 0 0 0 0 0 0;
0 0 0 0 0 0 0 0 0 0 0 0 0 0 0 0 0 0 0 0 0 0 0 0 0 0 0 0 0 1 0 0 0 0 0 0 0;
0 0 0 0 0 0 0 0 0 0 0 0 0 0 0 0 0 0 0 0 0 0 0 0 0 0 0 0 0 1 0 0 0 0 0 0 0;
0 0 0 0 0 0 0 0 0 0 0 0 0 0 0 0 0 0 0 0 0 0 0 0 0 0 0 0 0 1 0 0 0 0 0 0 0;
0 0 0 0 0 0 0 0 0 0 0 0 0 0 0 0 0 0 0 0 0 0 0 0 0 0 0 0 0 1 0 0 0 0 0 0 0;
0 0 0 0 0 0 0 0 0 0 0 0 0 0 0 0 0 0 0 0 0 0 0 0 0 0 0 0 0 1 0 0 0 0 0 0 0;
0 0 0 0 0 0 0 0 0 0 0 0 0 0 0 0 0 0 0 0 0 0 0 0 0 0 0 0 0 1 0 0 0 0 0 0 0;
0 0 0 0 0 0 0 0 0 0 0 0 0 0 0 0 0 0 0 0 0 0 0 0 0 0 0 0 0 1 0 0 0 0 0 0 0;
0 0 0 0 0 0 0 0 0 0 0 0 0 0 0 0 0 0 0 0 0 0 0 0 0 0 0 0 0 1 0 0 0 0 0 0 0;
0 0 0 0 0 0 0 0 0 0 0 0 0 0 0 0 0 0 0 0 0 0 0 0 0 0 0 0 0 1 1 0 0 0 0 0 0;
0 0 0 0 0 0 0 0 0 0 0 0 0 0 0 0 0 0 0 0 0 0 0 0 0 0 0 0 0 1 0 0 0 0 0 0 0;
0 0 0 0 0 0 0 0 0 0 0 0 0 0 0 0 0 0 0 0 0 0 0 0 0 0 0 0 0 1 0 0 0 0 0 0 0;
0 0 0 0 0 0 0 0 0 0 0 0 0 0 0 0 0 0 0 0 0 0 0 0 0 0 0 0 0 1 0 0 0 0 0 0 0;
0 0 0 0 0 0 0 0 0 0 0 0 0 0 0 0 0 0 0 0 0 0 0 0 0 0 0 0 0 1 0 0 0 0 0 0 0;
0 0 0 0 0 0 0 0 0 0 0 0 0 0 0 0 0 0 0 0 0 0 0 0 0 0 0 0 0 1 0 0 0 0 0 0 0;
0 0 0 0 0 0 0 0 0 0 0 0 0 0 0 0 0 0 0 0 0 0 0 0 0 0 0 0 0 1 0 0 0 0 0 0 0;
0 0 0 0 0 0 0 0 0 0 0 0 0 0 0 0 0 0 0 0 0 0 0 0 0 0 0 0 0 1 1 0 0 0 0 0 0;
0 0 0 0 0 0 0 0 0 0 0 0 0 0 0 0 0 0 0 0 0 0 0 0 0 0 0 0 0 1 0 0 0 0 0 0 0;
0 0 0 0 0 0 0 0 0 0 0 0 0 0 0 0 0 0 0 0 0 0 0 0 0 0 0 0 0 1 0 0 0 0 0 0 0;
0 0 0 0 0 0 0 0 0 0 0 0 0 0 0 0 0 0 0 0 0 0 0 0 0 0 0 0 0 1 0 0 0 0 0 0 0;
0 0 0 0 0 0 0 0 0 0 0 0 0 0 0 0 0 0 0 0 0 0 0 0 0 0 0 0 0 1 0 0 0 0 0 0 0;
0 0 0 0 0 0 0 0 0 0 0 0 0 0 0 0 0 0 0 0 0 0 0 0 0 0 0 0 0 1 0 0 0 0 0 0 0;
0 0 0 0 0 0 0 0 0 0 0 0 0 0 0 0 0 0 0 0 0 0 0 0 0 0 0 0 0 1 0 0 0 0 0 0 0;
0 0 0 0 0 0 0 0 0 0 0 0 0 0 0 0 0 0 0 0 0 0 0 0 0 0 0 0 0 1 0 0 0 0 0 0 0;
0 0 0 0 0 0 0 0 0 0 0 0 0 0 0 0 0 0 0 0 0 0 0 0 0 0 0 0 0 1 0 0 0 0 0 0 0;
0 0 0 0 0 0 0 0 0 0 0 0 0 0 0 0 0 0 0 0 0 0 0 0 0 0 0 0 0 1 0 0 0 0 0 0 0;
0 0 0 0 0 0 0 0 0 0 0 0 0 0 0 0 0 0 0 0 0 0 0 0 0 0 0 0 0 1 0 0 0 0 0 0 0;
0 0 0 0 0 0 0 0 0 0 0 0 0 0 0 0 0 0 0 0 0 0 0 0 0 0 0 0 0 1 0 0 0 0 0 0 0;
0 0 0 0 0 0 0 0 0 0 0 0 0 0 0 0 0 0 0 0 0 0 0 0 0 0 0 0 0 1 0 0 0 0 0 0 0;
0 0 0 0 0 0 0 0 0 0 0 0 0 0 0 0 0 0 0 0 0 0 0 0 0 0 0 0 0 1 0 0 0 0 0 0 0;
0 0 0 0 0 0 0 0 0 0 0 0 0 0 0 0 0 0 0 0 0 0 0 0 0 0 0 0 0 1 0 0 0 0 0 0 0;
0 0 0 0 0 0 0 0 0 0 0 0 0 0 0 0 0 0 0 0 0 0 0 0 0 0 0 0 0 1 1 0 0 0 0 0 0;
0 0 0 0 0 0 0 0 0 0 0 0 0 0 0 0 0 0 0 0 0 0 0 0 0 0 0 0 0 1 0 0 0 0 0 0 0;
0 0 0 0 0 0 0 0 0 0 0 0 0 0 0 0 0 0 0 0 0 0 0 0 0 0 0 0 0 1 0 0 0 0 0 0 0;
0 0 0 0 0 0 0 0 0 0 0 0 0 0 0 0 0 0 0 0 0 0 0 0 0 0 0 0 0 1 0 0 0 0 0 0 0;
0 0 0 0 0 0 0 0 0 0 0 0 0 0 0 0 0 0 0 0 0 0 0 0 0 0 0 0 0 1 0 0 0 0 0 0 0;
0 0 0 0 0 0 0 0 0 0 0 0 0 0 0 0 0 0 0 0 0 0 0 0 0 0 0 0 0 1 0 0 0 0 0 0 0;
0 0 0 0 0 0 0 0 0 0 0 0 0 0 0 0 0 0 0 0 0 0 0 0 0 0 0 0 0 1 0 0 0 0 0 0 0;
0 0 0 0 0 0 0 0 0 0 0 0 0 0 0 0 0 0 0 0 0 0 0 0 0 0 0 0 0 1 1 0 0 0 0 0 0;
0 0 0 0 0 0 0 0 0 0 0 0 0 0 0 0 0 0 0 0 0 0 0 0 0 0 0 0 0 1 0 0 0 0 0 0 0;
0 0 0 0 0 0 0 0 0 0 0 0 0 0 0 0 0 0 0 0 0 0 0 0 0 0 0 0 0 1 0 0 0 0 0 0 0;
0 0 0 0 0 0 0 0 0 0 0 0 0 0 0 0 0 0 0 0 0 0 0 0 0 0 0 0 0 1 0 0 0 0 0 0 0;
0 0 0 0 0 0 0 0 0 0 0 0 0 0 0 0 0 0 0 0 0 0 0 0 0 0 0 0 0 1 0 0 0 0 0 0 0;
0 0 0 0 0 0 0 0 0 0 0 0 0 0 0 0 0 0 0 0 0 0 0 0 0 0 0 0 0 1 0 0 0 0 0 0 0;
0 0 0 0 0 0 0 0 0 0 0 0 0 0 0 0 0 0 0 0 0 0 0 0 0 0 0 0 0 1 0 0 0 0 0 0 0;
0 0 0 0 0 0 0 0 0 0 0 0 0 0 0 0 0 0 0 0 0 0 0 0 0 0 0 0 0 1 0 0 0 0 0 0 0;
0 0 0 0 0 0 0 0 0 0 0 0 0 0 0 0 0 0 0 0 0 0 0 0 0 0 0 0 0 1 0 0 0 0 0 0 0;
0 0 0 0 0 0 0 0 0 0 0 0 0 0 0 0 0 0 0 0 0 0 0 0 0 0 0 0 0 1 0 0 0 0 0 0 0;
0 0 0 0 0 0 0 0 0 0 0 0 0 0 0 0 0 0 0 0 0 0 0 0 0 0 0 0 0 1 0 0 0 0 0 0 0;
0 0 0 0 0 0 0 0 0 0 0 0 0 0 0 0 0 0 0 0 0 0 0 0 0 0 0 0 0 1 0 0 0 0 0 0 0;
0 0 0 0 0 0 0 0 0 0 0 0 0 0 0 0 0 0 0 0 0 0 0 0 0 0 0 0 0 1 0 0 0 0 0 0 0;
0 0 0 0 0 0 0 0 0 0 0 0 0 0 0 0 0 0 0 0 0 0 0 0 0 0 0 0 0 1 0 0 0 0 0 0 0;
0 0 0 0 0 0 0 0 0 0 0 0 0 0 0 0 0 0 0 0 0 0 0 0 0 0 0 0 0 1 0 0 0 0 0 0 0;
0 0 0 0 0 0 0 0 0 0 0 0 0 0 0 0 0 0 0 0 0 0 0 0 0 0 0 0 0 1 1 0 0 0 0 0 0;
0 0 0 0 0 0 0 0 0 0 0 0 0 0 0 0 0 0 0 0 0 0 0 0 0 0 0 0 0 1 0 0 0 0 0 0 0;
0 0 0 0 0 0 0 0 0 0 0 0 0 0 0 0 0 0 0 0 0 0 0 0 0 0 0 0 0 1 0 0 0 0 0 0 0;
0 0 0 0 0 0 0 0 0 0 0 0 0 0 0 0 0 0 0 0 0 0 0 0 0 0 0 0 0 1 0 0 0 0 0 0 0;
0 0 0 0 0 0 0 0 0 0 0 0 0 0 0 0 0 0 0 0 0 0 0 0 0 0 0 0 0 1 0 0 0 0 0 0 0;
0 0 0 0 0 0 0 0 0 0 0 0 0 0 0 0 0 0 0 0 0 0 0 0 0 0 0 0 0 1 0 0 0 0 0 0 0;
0 0 0 0 0 0 0 0 0 0 0 0 0 0 0 0 0 0 0 0 0 0 0 0 0 0 0 0 0 1 0 0 0 0 0 0 0;
0 0 0 0 0 0 0 0 0 0 0 0 0 0 0 0 0 0 0 0 0 0 0 0 0 0 0 0 0 1 1 0 0 0 0 0 0;
0 0 0 0 0 0 0 0 0 0 0 0 0 0 0 0 0 0 0 0 0 0 0 0 0 0 0 0 0 1 0 0 0 0 0 0 0;
0 0 0 0 0 0 0 0 0 0 0 0 0 0 0 0 0 0 0 0 0 0 0 0 0 0 0 0 0 1 0 0 0 0 0 0 0;
0 0 0 0 0 0 0 0 0 0 0 0 0 0 0 0 0 0 0 0 0 0 0 0 0 0 0 0 0 1 0 0 0 0 0 0 0;
0 0 0 0 0 0 0 0 0 0 0 0 0 0 0 0 0 0 0 0 0 0 0 0 0 0 0 0 0 1 0 0 0 0 0 0 0;
0 0 0 0 0 0 0 0 0 0 0 0 0 0 0 0 0 0 0 0 0 0 0 0 0 0 0 0 0 1 0 0 0 0 0 0 0;
0 0 0 0 0 0 0 0 0 0 0 0 0 0 0 0 0 0 0 0 0 0 0 0 0 0 0 0 0 1 0 0 0 0 0 0 0;
0 0 0 0 0 0 0 0 0 0 0 0 0 0 0 0 0 0 0 0 0 0 0 0 0 0 0 0 0 1 0 0 0 0 0 0 0;
0 0 0 0 0 0 0 0 0 0 0 0 0 0 0 0 0 0 0 0 0 0 0 0 0 0 0 0 0 1 0 0 0 0 0 0 0;
0 0 0 0 0 0 0 0 0 0 0 0 0 0 0 0 0 0 0 0 0 0 0 0 0 0 0 0 0 1 0 0 0 0 0 0 0;
0 0 0 0 0 0 0 0 0 0 0 0 0 0 0 0 0 0 0 0 0 0 0 0 0 0 0 0 0 1 0 0 0 0 0 0 0;
0 0 0 0 0 0 0 0 0 0 0 0 0 0 0 0 0 0 0 0 0 0 0 0 0 0 0 0 0 1 0 0 0 0 0 0 0;
0 0 0 0 0 0 0 0 0 0 0 0 0 0 0 0 0 0 0 0 0 0 0 0 0 0 0 0 0 1 0 0 0 0 0 0 0;
0 0 0 0 0 0 0 0 0 0 0 0 0 0 0 0 0 0 0 0 0 0 0 0 0 0 0 0 0 1 0 0 0 0 0 0 0;
0 0 0 0 0 0 0 0 0 0 0 0 0 0 0 0 0 0 0 0 0 0 0 0 0 0 0 0 0 1 0 0 0 0 0 0 0;
0 0 0 0 0 0 0 0 0 0 0 0 0 0 0 0 0 0 0 0 0 0 0 0 0 0 0 0 0 1 1 0 0 0 0 0 0;
0 0 0 0 0 0 0 0 0 0 0 0 0 0 0 0 0 0 0 0 0 0 0 0 0 0 0 0 0 1 0 0 0 0 0 0 0;
0 0 0 0 0 0 0 0 0 0 0 0 0 0 0 0 0 0 0 0 0 0 0 0 0 0 0 0 0 1 0 0 0 0 0 0 0;
0 0 0 0 0 0 0 0 0 0 0 0 0 0 0 0 0 0 0 0 0 0 0 0 0 0 0 0 0 1 0 0 0 0 0 0 0;
0 0 0 0 0 0 0 0 0 0 0 0 0 0 0 0 0 0 0 0 0 0 0 0 0 0 0 0 0 1 0 0 0 0 0 0 0;
0 0 0 0 0 0 0 0 0 0 0 0 0 0 0 0 0 0 0 0 0 0 0 0 0 0 0 0 0 1 0 0 0 0 0 0 0;
0 0 0 0 0 0 0 0 0 0 0 0 0 0 0 0 0 0 0 0 0 0 0 0 0 0 0 0 0 1 0 0 0 0 0 0 0;
0 0 0 0 0 0 0 0 0 0 0 0 0 0 0 0 0 0 0 0 0 0 0 0 0 0 0 0 0 1 1 0 0 0 0 0 0;
0 0 0 0 0 0 0 0 0 0 0 0 0 0 0 0 0 0 0 0 0 0 0 0 0 0 0 0 0 1 0 0 0 0 0 0 0;
0 0 0 0 0 0 0 0 0 0 0 0 0 0 0 0 0 0 0 0 0 0 0 0 0 0 0 0 0 1 0 0 0 0 0 0 0;
0 0 0 0 0 0 0 0 0 0 0 0 0 0 0 0 0 0 0 0 0 0 0 0 0 0 0 0 0 1 0 0 0 0 0 0 0;
0 0 0 0 0 0 0 0 0 0 0 0 0 0 0 0 0 0 0 0 0 0 0 0 0 0 0 0 0 1 0 0 0 0 0 0 0;
0 0 0 0 0 0 0 0 0 0 0 0 0 0 0 0 0 0 0 0 0 0 0 0 0 0 0 0 0 1 0 0 0 0 0 0 0;
0 0 0 0 0 0 0 0 0 0 0 0 0 0 0 0 0 0 0 0 0 0 0 0 0 0 0 0 0 1 0 0 0 0 0 0 0;
0 0 0 0 0 0 0 0 0 0 0 0 0 0 0 0 0 0 0 0 0 0 0 0 0 0 0 0 0 1 0 0 0 0 0 0 0;
0 0 0 0 0 0 0 0 0 0 0 0 0 0 0 0 0 0 0 0 0 0 0 0 0 0 0 0 0 1 0 0 0 0 0 0 0;
0 0 0 0 0 0 0 0 0 0 0 0 0 0 0 0 0 0 0 0 0 0 0 0 0 0 0 0 0 1 0 0 0 0 0 0 0;
0 0 0 0 0 0 0 0 0 0 0 0 0 0 0 0 0 0 0 0 0 0 0 0 0 0 0 0 0 1 0 0 0 0 0 0 0;
0 0 0 0 0 0 0 0 0 0 0 0 0 0 0 0 0 0 0 0 0 0 0 0 0 0 0 0 0 1 0 0 0 0 0 0 0;
0 0 0 0 0 0 0 0 0 0 0 0 0 0 0 0 0 0 0 0 0 0 0 0 0 0 0 0 0 1 0 0 0 0 0 0 0;
0 0 0 0 0 0 0 0 0 0 0 0 0 0 0 0 0 0 0 0 0 0 0 0 0 0 0 0 0 1 0 0 0 0 0 0 0;
0 0 0 0 0 0 0 0 0 0 0 0 0 0 0 0 0 0 0 0 0 0 0 0 0 0 0 0 0 1 0 0 0 0 0 0 0;
0 0 0 0 0 0 0 0 0 0 0 0 0 0 0 0 0 0 0 0 0 0 0 0 0 0 0 0 0 1 1 0 0 0 0 0 0;
0 0 0 0 0 0 0 0 0 0 0 0 0 0 0 0 0 0 0 0 0 0 0 0 0 0 0 0 0 1 0 0 0 0 0 0 0;
0 0 0 0 0 0 0 0 0 0 0 0 0 0 0 0 0 0 0 0 0 0 0 0 0 0 0 0 0 1 0 0 0 0 0 0 0;
0 0 0 0 0 0 0 0 0 0 0 0 0 0 0 0 0 0 0 0 0 0 0 0 0 0 0 0 0 1 0 0 0 0 0 0 0;
0 0 0 0 0 0 0 0 0 0 0 0 0 0 0 0 0 0 0 0 0 0 0 0 0 0 0 0 0 1 0 0 0 0 0 0 0;
0 0 0 0 0 0 0 0 0 0 0 0 0 0 0 0 0 0 0 0 0 0 0 0 0 0 0 0 0 1 0 0 0 0 0 0 0;
0 0 0 0 0 0 0 0 0 0 0 0 0 0 0 0 0 0 0 0 0 0 0 0 0 0 0 0 0 1 0 0 0 0 0 0 0;
0 0 0 0 0 0 0 0 0 0 0 0 0 0 0 0 0 0 0 0 0 0 0 0 0 0 0 0 0 1 1 0 0 0 0 0 0;
0 0 0 0 0 0 0 0 0 0 0 0 0 0 0 0 0 0 0 0 0 0 0 0 0 0 0 0 0 1 0 0 0 0 0 0 0;
0 0 0 0 0 0 0 0 0 0 0 0 0 0 0 0 0 0 0 0 0 0 0 0 0 0 0 0 0 1 0 0 0 0 0 0 0;
0 0 0 0 0 0 0 0 0 0 0 0 0 0 0 0 0 0 0 0 0 0 0 0 0 0 0 0 0 1 0 0 0 0 0 0 0;
0 0 0 0 0 0 0 0 0 0 0 0 0 0 0 0 0 0 0 0 0 0 0 0 0 0 0 0 0 1 0 0 0 0 0 0 0;
0 0 0 0 0 0 0 0 0 0 0 0 0 0 0 0 0 0 0 0 0 0 0 0 0 0 0 0 0 1 0 0 0 0 0 0 0;
0 0 0 0 0 0 0 0 0 0 0 0 0 0 0 0 0 0 0 0 0 0 0 0 0 0 0 0 0 1 0 0 0 0 0 0 0;
0 0 0 0 0 0 0 0 0 0 0 0 0 0 0 0 0 0 0 0 0 0 0 0 0 0 0 0 0 1 0 0 0 0 0 0 0;
0 0 0 0 0 0 0 0 0 0 0 0 0 0 0 0 0 0 0 0 0 0 0 0 0 0 0 0 0 1 0 0 0 0 0 0 0;
0 0 0 0 0 0 0 0 0 0 0 0 0 0 0 0 0 0 0 0 0 0 0 0 0 0 0 0 0 1 0 0 0 0 0 0 0;
0 0 0 0 0 0 0 0 0 0 0 0 0 0 0 0 0 0 0 0 0 0 0 0 0 0 0 0 0 1 0 0 0 0 0 0 0;
0 0 0 0 0 0 0 0 0 0 0 0 0 0 0 0 0 0 0 0 0 0 0 0 0 0 0 0 0 1 0 0 0 0 0 0 0;
0 0 0 0 0 0 0 0 0 0 0 0 0 0 0 0 0 0 0 0 0 0 0 0 0 0 0 0 0 1 0 0 0 0 0 0 0;
0 0 0 0 0 0 0 0 0 0 0 0 0 0 0 0 0 0 0 0 0 0 0 0 0 0 0 0 0 1 0 0 0 0 0 0 0;
0 0 0 0 0 0 0 0 0 0 0 0 0 0 0 0 0 0 0 0 0 0 0 0 0 0 0 0 0 1 0 0 0 0 0 0 0;
0 0 0 0 0 0 0 0 0 0 0 0 0 0 0 0 0 0 0 0 0 0 0 0 0 0 0 0 0 1 1 0 0 0 0 0 0;
0 0 0 0 0 0 0 0 0 0 0 0 0 0 0 0 0 0 0 0 0 0 0 0 0 0 0 0 0 1 0 0 0 0 0 0 0;
0 0 0 0 0 0 0 0 0 0 0 0 0 0 0 0 0 0 0 0 0 0 0 0 0 0 0 0 0 1 0 0 0 0 0 0 0;
0 0 0 0 0 0 0 0 0 0 0 0 0 0 0 0 0 0 0 0 0 0 0 0 0 0 0 0 0 1 0 0 0 0 0 0 0;
0 0 0 0 0 0 0 0 0 0 0 0 0 0 0 0 0 0 0 0 0 0 0 0 0 0 0 0 0 1 0 0 0 0 0 0 0;
0 0 0 0 0 0 0 0 0 0 0 0 0 0 0 0 0 0 0 0 0 0 0 0 0 0 0 0 0 1 0 0 0 0 0 0 0;
0 0 0 0 0 0 0 0 0 0 0 0 0 0 0 0 0 0 0 0 0 0 0 0 0 0 0 0 0 1 0 0 0 0 0 0 0;
0 0 0 0 0 0 0 0 0 0 0 0 0 0 0 0 0 0 0 0 0 0 0 0 0 0 0 0 0 1 1 0 0 0 0 0 0;
0 0 0 0 0 0 0 0 0 0 0 0 0 0 0 0 0 0 0 0 0 0 0 0 0 0 0 0 0 1 0 0 0 0 0 0 0;
0 0 0 0 0 0 0 0 0 0 0 0 0 0 0 0 0 0 0 0 0 0 0 0 0 0 0 0 0 1 0 0 0 0 0 0 0;
0 0 0 0 0 0 0 0 0 0 0 0 0 0 0 0 0 0 0 0 0 0 0 0 0 0 0 0 0 1 0 0 0 0 0 0 0;
links=173;
Logit;
Logit;
Logit;
Logit;
Logit;
Logit;
Logit;
Logit;
Logit;
Logit;
Logit;
Logit;
Logit;
Logit;
Logit;
Logit;
Logit;
Logit;
Logit;
Logit;
Logit;
Logit;
Logit;
Logit;
Logit;
Logit;
Logit;
Logit;
Logit;
Logit;
Logit;
Logit;
Logit;
Logit;
Logit;
Log;
Log;
Log;
Log;
Log;
Log;
mlogit(1);
mlogit(1);
mlogit(1);
mlogit(1);
mlogit(1);
mlogit(1);
mlogit(1);
mlogit(1);
mlogit(1);
mlogit(1);
mlogit(1);
mlogit(1);
mlogit(1);
mlogit(1);
mlogit(1);
mlogit(1);
mlogit(1);
mlogit(1);
mlogit(1);
mlogit(1);
mlogit(1);
mlogit(1);
mlogit(2);
mlogit(2);
mlogit(2);
mlogit(2);
mlogit(2);
mlogit(2);
mlogit(2);
mlogit(2);
mlogit(2);
mlogit(2);
mlogit(2);
mlogit(2);
mlogit(2);
mlogit(2);
mlogit(2);
mlogit(2);
mlogit(2);
mlogit(2);
mlogit(2);
mlogit(2);
mlogit(2);
mlogit(2);
mlogit(3);
mlogit(3);
mlogit(3);
mlogit(3);
mlogit(3);
mlogit(3);
mlogit(3);
mlogit(3);
mlogit(3);
mlogit(3);
mlogit(3);
mlogit(3);
mlogit(3);
mlogit(3);
mlogit(3);
mlogit(3);
mlogit(3);
mlogit(3);
mlogit(3);
mlogit(3);
mlogit(3);
mlogit(3);
mlogit(4);
mlogit(4);
mlogit(4);
mlogit(4);
mlogit(4);
mlogit(4);
mlogit(4);
mlogit(4);
mlogit(4);
mlogit(4);
mlogit(4);
mlogit(4);
mlogit(4);
mlogit(4);
mlogit(4);
mlogit(4);
mlogit(4);
mlogit(4);
mlogit(4);
mlogit(4);
mlogit(4);
mlogit(4);
mlogit(5);
mlogit(5);
mlogit(5);
mlogit(5);
mlogit(5);
mlogit(5);
mlogit(5);
mlogit(5);
mlogit(5);
mlogit(5);
mlogit(5);
mlogit(5);
mlogit(5);
mlogit(5);
mlogit(5);
mlogit(5);
mlogit(5);
mlogit(5);
mlogit(5);
mlogit(5);
mlogit(5);
mlogit(5);
mlogit(6);
mlogit(6);
mlogit(6);
mlogit(6);
mlogit(6);
mlogit(6);
mlogit(6);
mlogit(6);
mlogit(6);
mlogit(6);
mlogit(6);
mlogit(6);
mlogit(6);
mlogit(6);
mlogit(6);
mlogit(6);
mlogit(6);
mlogit(6);
mlogit(6);
mlogit(6);
mlogit(6);
mlogit(6);
blabel(1)=Phi:(Intercept);
blabel(2)=Phi:Seasonhibernation;
blabel(3)=Phi:valleyS;
blabel(4)=Phi:altitude2;
blabel(5)=Phi:altitude3;
blabel(6)=Phi:Seasonhibernation:valleyS;
blabel(7)=p:(Intercept);
blabel(8)=p:time1.49277266754271;
blabel(9)=p:time2.01839684625493;
blabel(10)=p:time2.51116951379763;
blabel(11)=p:time3.00394218134034;
blabel(12)=p:time3.49671484888305;
blabel(13)=p:time4.02233902759527;
blabel(14)=p:time4.51511169513798;
blabel(15)=p:time5.0407358738502;
blabel(16)=p:time5.5335085413929;
blabel(17)=p:time6.35479632063075;
blabel(18)=p:time13.3193166885677;
blabel(19)=p:time14.3377135348226;
blabel(20)=p:time15.323258869908;
blabel(21)=p:time16.0131406044678;
blabel(22)=p:time16.5059132720105;
blabel(23)=p:time17.0315374507227;
blabel(24)=p:time17.5243101182654;
blabel(25)=p:time26.3613666228647;
blabel(26)=p:time27.3469119579501;
blabel(27)=p:time28.365308804205;
blabel(28)=p:time29.3837056504599;
blabel(29)=p:time30.3692509855453;
blabel(30)=pent:(Intercept);
blabel(31)=pent:Seasonhibernation;
blabel(32)=N:(Intercept);
blabel(33)=N:groupS1;
blabel(34)=N:groupR2;
blabel(35)=N:groupS2;
blabel(36)=N:groupR3;
blabel(37)=N:groupS3;
rlabel(1)=Phi gR1 a0 t1;
rlabel(2)=Phi gR1 a12.3193166885677 t13.3193166885677;
rlabel(3)=Phi gS1 a0 t1;
rlabel(4)=Phi gS1 a12.3193166885677 t13.3193166885677;
rlabel(5)=Phi gR2 a0 t1;
rlabel(6)=Phi gR2 a12.3193166885677 t13.3193166885677;
rlabel(7)=Phi gS2 a0 t1;
rlabel(8)=Phi gS2 a12.3193166885677 t13.3193166885677;
rlabel(9)=Phi gR3 a0 t1;
rlabel(10)=Phi gR3 a12.3193166885677 t13.3193166885677;
rlabel(11)=Phi gS3 a0 t1;
rlabel(12)=Phi gS3 a12.3193166885677 t13.3193166885677;
rlabel(13)=p gR1 a0 t1;
rlabel(14)=p gR1 a0.492772667542707 t1.49277266754271;
rlabel(15)=p gR1 a1.01839684625493 t2.01839684625493;
rlabel(16)=p gR1 a1.51116951379763 t2.51116951379763;
rlabel(17)=p gR1 a2.00394218134034 t3.00394218134034;
rlabel(18)=p gR1 a2.49671484888305 t3.49671484888305;
rlabel(19)=p gR1 a3.02233902759527 t4.02233902759527;
rlabel(20)=p gR1 a3.51511169513798 t4.51511169513798;
rlabel(21)=p gR1 a4.0407358738502 t5.0407358738502;
rlabel(22)=p gR1 a4.5335085413929 t5.5335085413929;
rlabel(23)=p gR1 a5.35479632063075 t6.35479632063075;
rlabel(24)=p gR1 a12.3193166885677 t13.3193166885677;
rlabel(25)=p gR1 a13.3377135348226 t14.3377135348226;
rlabel(26)=p gR1 a14.323258869908 t15.323258869908;
rlabel(27)=p gR1 a15.0131406044678 t16.0131406044678;
rlabel(28)=p gR1 a15.5059132720105 t16.5059132720105;
rlabel(29)=p gR1 a16.0315374507227 t17.0315374507227;
rlabel(30)=p gR1 a16.5243101182654 t17.5243101182654;
rlabel(31)=p gR1 a25.3613666228647 t26.3613666228647;
rlabel(32)=p gR1 a26.3469119579501 t27.3469119579501;
rlabel(33)=p gR1 a27.365308804205 t28.365308804205;
rlabel(34)=p gR1 a28.3837056504599 t29.3837056504599;
rlabel(35)=p gR1 a29.3692509855453 t30.3692509855453;
rlabel(36)=N gR1 a0 t1;
rlabel(37)=N gS1 a0 t1;
rlabel(38)=N gR2 a0 t1;
rlabel(39)=N gS2 a0 t1;
rlabel(40)=N gR3 a0 t1;
rlabel(41)=N gS3 a0 t1;
rlabel(42)=pent gR1 a0.492772667542707 t1.49277266754271;
rlabel(43)=pent gR1 a1.01839684625493 t2.01839684625493;
rlabel(44)=pent gR1 a1.51116951379763 t2.51116951379763;
rlabel(45)=pent gR1 a2.00394218134034 t3.00394218134034;
rlabel(46)=pent gR1 a2.49671484888305 t3.49671484888305;
rlabel(47)=pent gR1 a3.02233902759527 t4.02233902759527;
rlabel(48)=pent gR1 a3.51511169513798 t4.51511169513798;
rlabel(49)=pent gR1 a4.0407358738502 t5.0407358738502;
rlabel(50)=pent gR1 a4.5335085413929 t5.5335085413929;
rlabel(51)=pent gR1 a5.35479632063075 t6.35479632063075;
rlabel(52)=pent gR1 a12.3193166885677 t13.3193166885677;
rlabel(53)=pent gR1 a13.3377135348226 t14.3377135348226;
rlabel(54)=pent gR1 a14.323258869908 t15.323258869908;
rlabel(55)=pent gR1 a15.0131406044678 t16.0131406044678;
rlabel(56)=pent gR1 a15.5059132720105 t16.5059132720105;
rlabel(57)=pent gR1 a16.0315374507227 t17.0315374507227;
rlabel(58)=pent gR1 a16.5243101182654 t17.5243101182654;
rlabel(59)=pent gR1 a25.3613666228647 t26.3613666228647;
rlabel(60)=pent gR1 a26.3469119579501 t27.3469119579501;
rlabel(61)=pent gR1 a27.365308804205 t28.365308804205;
rlabel(62)=pent gR1 a28.3837056504599 t29.3837056504599;
rlabel(63)=pent gR1 a29.3692509855453 t30.3692509855453;
rlabel(64)=pent gS1 a0.492772667542707 t1.49277266754271;
rlabel(65)=pent gS1 a1.01839684625493 t2.01839684625493;
rlabel(66)=pent gS1 a1.51116951379763 t2.51116951379763;
rlabel(67)=pent gS1 a2.00394218134034 t3.00394218134034;
rlabel(68)=pent gS1 a2.49671484888305 t3.49671484888305;
rlabel(69)=pent gS1 a3.02233902759527 t4.02233902759527;
rlabel(70)=pent gS1 a3.51511169513798 t4.51511169513798;
rlabel(71)=pent gS1 a4.0407358738502 t5.0407358738502;
rlabel(72)=pent gS1 a4.5335085413929 t5.5335085413929;
rlabel(73)=pent gS1 a5.35479632063075 t6.35479632063075;
rlabel(74)=pent gS1 a12.3193166885677 t13.3193166885677;
rlabel(75)=pent gS1 a13.3377135348226 t14.3377135348226;
rlabel(76)=pent gS1 a14.323258869908 t15.323258869908;
rlabel(77)=pent gS1 a15.0131406044678 t16.0131406044678;
rlabel(78)=pent gS1 a15.5059132720105 t16.5059132720105;
rlabel(79)=pent gS1 a16.0315374507227 t17.0315374507227;
rlabel(80)=pent gS1 a16.5243101182654 t17.5243101182654;
rlabel(81)=pent gS1 a25.3613666228647 t26.3613666228647;
rlabel(82)=pent gS1 a26.3469119579501 t27.3469119579501;
rlabel(83)=pent gS1 a27.365308804205 t28.365308804205;
rlabel(84)=pent gS1 a28.3837056504599 t29.3837056504599;
rlabel(85)=pent gS1 a29.3692509855453 t30.3692509855453;
rlabel(86)=pent gR2 a0.492772667542707 t1.49277266754271;
rlabel(87)=pent gR2 a1.01839684625493 t2.01839684625493;
rlabel(88)=pent gR2 a1.51116951379763 t2.51116951379763;
rlabel(89)=pent gR2 a2.00394218134034 t3.00394218134034;
rlabel(90)=pent gR2 a2.49671484888305 t3.49671484888305;
rlabel(91)=pent gR2 a3.02233902759527 t4.02233902759527;
rlabel(92)=pent gR2 a3.51511169513798 t4.51511169513798;
rlabel(93)=pent gR2 a4.0407358738502 t5.0407358738502;
rlabel(94)=pent gR2 a4.5335085413929 t5.5335085413929;
rlabel(95)=pent gR2 a5.35479632063075 t6.35479632063075;
rlabel(96)=pent gR2 a12.3193166885677 t13.3193166885677;
rlabel(97)=pent gR2 a13.3377135348226 t14.3377135348226;
rlabel(98)=pent gR2 a14.323258869908 t15.323258869908;
rlabel(99)=pent gR2 a15.0131406044678 t16.0131406044678;
rlabel(100)=pent gR2 a15.5059132720105 t16.5059132720105;
rlabel(101)=pent gR2 a16.0315374507227 t17.0315374507227;
rlabel(102)=pent gR2 a16.5243101182654 t17.5243101182654;
rlabel(103)=pent gR2 a25.3613666228647 t26.3613666228647;
rlabel(104)=pent gR2 a26.3469119579501 t27.3469119579501;
rlabel(105)=pent gR2 a27.365308804205 t28.365308804205;
rlabel(106)=pent gR2 a28.3837056504599 t29.3837056504599;
rlabel(107)=pent gR2 a29.3692509855453 t30.3692509855453;
rlabel(108)=pent gS2 a0.492772667542707 t1.49277266754271;
rlabel(109)=pent gS2 a1.01839684625493 t2.01839684625493;
rlabel(110)=pent gS2 a1.51116951379763 t2.51116951379763;
rlabel(111)=pent gS2 a2.00394218134034 t3.00394218134034;
rlabel(112)=pent gS2 a2.49671484888305 t3.49671484888305;
rlabel(113)=pent gS2 a3.02233902759527 t4.02233902759527;
rlabel(114)=pent gS2 a3.51511169513798 t4.51511169513798;
rlabel(115)=pent gS2 a4.0407358738502 t5.0407358738502;
rlabel(116)=pent gS2 a4.5335085413929 t5.5335085413929;
rlabel(117)=pent gS2 a5.35479632063075 t6.35479632063075;
rlabel(118)=pent gS2 a12.3193166885677 t13.3193166885677;
rlabel(119)=pent gS2 a13.3377135348226 t14.3377135348226;
rlabel(120)=pent gS2 a14.323258869908 t15.323258869908;
rlabel(121)=pent gS2 a15.0131406044678 t16.0131406044678;
rlabel(122)=pent gS2 a15.5059132720105 t16.5059132720105;
rlabel(123)=pent gS2 a16.0315374507227 t17.0315374507227;
rlabel(124)=pent gS2 a16.5243101182654 t17.5243101182654;
rlabel(125)=pent gS2 a25.3613666228647 t26.3613666228647;
rlabel(126)=pent gS2 a26.3469119579501 t27.3469119579501;
rlabel(127)=pent gS2 a27.365308804205 t28.365308804205;
rlabel(128)=pent gS2 a28.3837056504599 t29.3837056504599;
rlabel(129)=pent gS2 a29.3692509855453 t30.3692509855453;
rlabel(130)=pent gR3 a0.492772667542707 t1.49277266754271;
rlabel(131)=pent gR3 a1.01839684625493 t2.01839684625493;
rlabel(132)=pent gR3 a1.51116951379763 t2.51116951379763;
rlabel(133)=pent gR3 a2.00394218134034 t3.00394218134034;
rlabel(134)=pent gR3 a2.49671484888305 t3.49671484888305;
rlabel(135)=pent gR3 a3.02233902759527 t4.02233902759527;
rlabel(136)=pent gR3 a3.51511169513798 t4.51511169513798;
rlabel(137)=pent gR3 a4.0407358738502 t5.0407358738502;
rlabel(138)=pent gR3 a4.5335085413929 t5.5335085413929;
rlabel(139)=pent gR3 a5.35479632063075 t6.35479632063075;
rlabel(140)=pent gR3 a12.3193166885677 t13.3193166885677;
rlabel(141)=pent gR3 a13.3377135348226 t14.3377135348226;
rlabel(142)=pent gR3 a14.323258869908 t15.323258869908;
rlabel(143)=pent gR3 a15.0131406044678 t16.0131406044678;
rlabel(144)=pent gR3 a15.5059132720105 t16.5059132720105;
rlabel(145)=pent gR3 a16.0315374507227 t17.0315374507227;
rlabel(146)=pent gR3 a16.5243101182654 t17.5243101182654;
rlabel(147)=pent gR3 a25.3613666228647 t26.3613666228647;
rlabel(148)=pent gR3 a26.3469119579501 t27.3469119579501;
rlabel(149)=pent gR3 a27.365308804205 t28.365308804205;
rlabel(150)=pent gR3 a28.3837056504599 t29.3837056504599;
rlabel(151)=pent gR3 a29.3692509855453 t30.3692509855453;
rlabel(152)=pent gS3 a0.492772667542707 t1.49277266754271;
rlabel(153)=pent gS3 a1.01839684625493 t2.01839684625493;
rlabel(154)=pent gS3 a1.51116951379763 t2.51116951379763;
rlabel(155)=pent gS3 a2.00394218134034 t3.00394218134034;
rlabel(156)=pent gS3 a2.49671484888305 t3.49671484888305;
rlabel(157)=pent gS3 a3.02233902759527 t4.02233902759527;
rlabel(158)=pent gS3 a3.51511169513798 t4.51511169513798;
rlabel(159)=pent gS3 a4.0407358738502 t5.0407358738502;
rlabel(160)=pent gS3 a4.5335085413929 t5.5335085413929;
rlabel(161)=pent gS3 a5.35479632063075 t6.35479632063075;
rlabel(162)=pent gS3 a12.3193166885677 t13.3193166885677;
rlabel(163)=pent gS3 a13.3377135348226 t14.3377135348226;
rlabel(164)=pent gS3 a14.323258869908 t15.323258869908;
rlabel(165)=pent gS3 a15.0131406044678 t16.0131406044678;
rlabel(166)=pent gS3 a15.5059132720105 t16.5059132720105;
rlabel(167)=pent gS3 a16.0315374507227 t17.0315374507227;
rlabel(168)=pent gS3 a16.5243101182654 t17.5243101182654;
rlabel(169)=pent gS3 a25.3613666228647 t26.3613666228647;
rlabel(170)=pent gS3 a26.3469119579501 t27.3469119579501;
rlabel(171)=pent gS3 a27.365308804205 t28.365308804205;
rlabel(172)=pent gS3 a28.3837056504599 t29.3837056504599;
rlabel(173)=pent gS3 a29.3692509855453 t30.3692509855453;
proc stop;
