 proc title ; proc chmatrix occasions= 23 groups= 6 etype= POPAN Nodes= 101 ICMeans NoHist hist= 84
 ; time interval 0.492772667542707 0.525624178712221 0.492772667542707 0.492772667542707
 0.492772667542707 0.525624178712221 0.492772667542707 0.525624178712221 0.492772667542707
 0.821287779237845 6.96452036793692 1.01839684625493 0.985545335085414 0.68988173455979
 0.492772667542707 0.525624178712221 0.492772667542707 8.83705650459921 0.985545335085414
 1.01839684625493 1.01839684625493 0.985545335085414 ;
glabel(1)=valleyR.altitude1;
glabel(2)=valleyS.altitude1;
glabel(3)=valleyR.altitude2;
glabel(4)=valleyS.altitude2;
glabel(5)=valleyR.altitude3;
glabel(6)=valleyS.altitude3;
 00000000000000000000001 0 0 2 0 0 0;
 00000000000000000000010 0 0 0 0 6 0;
 00000000000000000000100 0 0 0 0 0 1;
 00000000000000000000100 0 0 0 0 9 0;
 00000000000000000001100 0 0 0 0 0 2;
 00000000000000000001100 0 0 0 0 1 0;
 00000000000000000010000 0 0 0 0 6 0;
 00000000000000000010000 0 0 2 0 0 0;
 00000000000000000010100 0 0 0 0 1 0;
 00000000000000000011000 0 0 0 0 3 0;
 00000000000000000011000 0 0 1 0 0 0;
 00000000000000000100000 0 0 0 0 2 0;
 00000000000000000100000 0 0 1 0 0 0;
 00000000000000000100001 0 0 1 0 0 0;
 00000000000000001000000 0 0 0 0 0 1;
 00000000000000001000000 0 0 0 0 2 0;
 00000000000000001000000 2 0 0 0 0 0;
 00000000000000010000000 0 0 0 0 0 1;
 00000000000000010000000 0 0 0 0 3 0;
 00000000000000011000000 0 0 0 0 2 0;
 00000000000000011010000 0 0 0 0 1 0;
 00000000000000100000000 0 0 0 0 5 0;
 00000000000000100000000 0 1 0 0 0 0;
 00000000000000110000000 0 0 0 0 0 1;
 00000000000001100000000 0 0 1 0 0 0;
 00000000000010000000000 0 0 0 0 0 1;
 00000000000010000000000 0 0 0 0 2 0;
 00000000000010110000000 0 0 0 0 0 1;
 00000000000011001000000 0 0 0 0 0 1;
 00000000000100000000000 0 0 0 0 0 1;
 00000000000100000000000 0 0 0 0 6 0;
 00000000000100000000000 0 0 0 2 0 0;
 00000000000100000000000 0 0 1 0 0 0;
 00000000000100000000000 2 0 0 0 0 0;
 00000000000100001000000 1 0 0 0 0 0;
 00000000000101000010000 0 0 0 0 1 0;
 00000000000101100000000 0 0 0 0 1 0;
 00000000000101111000000 0 0 0 0 1 0;
 00000000001000000000000 0 0 1 0 0 0;
 00000000001010000000000 1 0 0 0 0 0;
 00000000010000000000000 0 0 0 0 0 3;
 00000000010000101000000 0 0 0 0 0 1;
 00000000010010000000000 1 0 0 0 0 0;
 00000000100000000000000 0 0 0 0 0 2;
 00000000100000000000000 0 0 0 0 1 0;
 00000000100000000000000 1 0 0 0 0 0;
 00000000100100000000000 0 0 0 0 1 0;
 00000000110000000000000 0 0 0 0 0 1;
 00000000110000001000000 0 0 0 0 1 0;
 00000001000000000000000 0 0 0 0 0 2;
 00000001100000000000000 0 0 0 0 1 0;
 00000010000000000000000 0 0 0 0 1 0;
 00000010000000000000000 0 2 0 0 0 0;
 00000010000000010001100 0 0 0 0 1 0;
 00000010000100000000000 0 0 1 0 0 0;
 00000010010000000000000 0 0 0 0 1 0;
 00000011000000000000000 0 0 0 0 0 1;
 00000011000000000000000 1 0 0 0 0 0;
 00000011100000001000000 0 0 0 0 1 0;
 00000110000000001000000 0 0 0 1 0 0;
 00000110000011001000000 0 0 0 0 0 1;
 00001000000000000000000 0 0 0 0 1 0;
 00001000000000000000000 0 1 0 0 0 0;
 00001000000000000000000 1 0 0 0 0 0;
 00001000000100000000000 0 0 1 0 0 0;
 00010000000000000000000 0 0 0 0 1 0;
 00010000000000000000000 0 0 0 1 0 0;
 00010000000001000000000 0 0 0 0 1 0;
 00011000000000000000000 0 1 0 0 0 0;
 00100000000000001000000 0 0 0 0 1 0;
 00100111000100000000000 0 0 0 0 1 0;
 00111110000011111000000 0 0 0 0 0 1;
 01000000000000000000000 0 0 0 0 2 0;
 01000000000000001000000 0 0 0 0 1 0;
 01000100000000001000000 0 0 0 0 1 0;
 01000101000000000000000 0 0 0 0 1 0;
 01010000100000000000000 0 0 0 0 0 1;
 01111110000000001000000 0 0 0 0 1 0;
 10000000000000000000000 0 0 0 0 1 0;
 10000000000000000000000 0 0 2 0 0 0;
 10000010000000000000000 0 0 0 0 1 0;
 10001000000000000000000 1 0 0 0 0 0;
 10001000100000001000000 1 0 0 0 0 0;
 11100110000000000000000 0 0 0 0 1 0;
proc estimate link=Parm-Specific NOLOOP varest=2ndPart    ;
model={ null };
group=1 Phi    rows=1 cols=22 Square ;
1 1 1 1 1 1 1 1 1 1 1 1 1 1 1 1 1 1 1 1 1 1 ;
group=2 Phi    rows=1 cols=22 Square ;
1 1 1 1 1 1 1 1 1 1 1 1 1 1 1 1 1 1 1 1 1 1 ;
group=3 Phi    rows=1 cols=22 Square ;
1 1 1 1 1 1 1 1 1 1 1 1 1 1 1 1 1 1 1 1 1 1 ;
group=4 Phi    rows=1 cols=22 Square ;
1 1 1 1 1 1 1 1 1 1 1 1 1 1 1 1 1 1 1 1 1 1 ;
group=5 Phi    rows=1 cols=22 Square ;
1 1 1 1 1 1 1 1 1 1 1 1 1 1 1 1 1 1 1 1 1 1 ;
group=6 Phi    rows=1 cols=22 Square ;
1 1 1 1 1 1 1 1 1 1 1 1 1 1 1 1 1 1 1 1 1 1 ;
group=1 p    rows=1 cols=23 Square ;
2 2 2 2 2 2 2 2 2 2 2 2 2 2 2 2 2 2 2 2 2 2 2 ;
group=2 p    rows=1 cols=23 Square ;
2 2 2 2 2 2 2 2 2 2 2 2 2 2 2 2 2 2 2 2 2 2 2 ;
group=3 p    rows=1 cols=23 Square ;
2 2 2 2 2 2 2 2 2 2 2 2 2 2 2 2 2 2 2 2 2 2 2 ;
group=4 p    rows=1 cols=23 Square ;
2 2 2 2 2 2 2 2 2 2 2 2 2 2 2 2 2 2 2 2 2 2 2 ;
group=5 p    rows=1 cols=23 Square ;
2 2 2 2 2 2 2 2 2 2 2 2 2 2 2 2 2 2 2 2 2 2 2 ;
group=6 p    rows=1 cols=23 Square ;
2 2 2 2 2 2 2 2 2 2 2 2 2 2 2 2 2 2 2 2 2 2 2 ;
group=1 pent    rows=1 cols=22 Square ;
9 10 11 12 13 14 15 16 17 18 19 20 21 22 23 24 25 26 27 28 29 30 ;
group=2 pent    rows=1 cols=22 Square ;
31 32 33 34 35 36 37 38 39 40 41 42 43 44 45 46 47 48 49 50 51 52 ;
group=3 pent    rows=1 cols=22 Square ;
53 54 55 56 57 58 59 60 61 62 63 64 65 66 67 68 69 70 71 72 73 74 ;
group=4 pent    rows=1 cols=22 Square ;
75 76 77 78 79 80 81 82 83 84 85 86 87 88 89 90 91 92 93 94 95 96 ;
group=5 pent    rows=1 cols=22 Square ;
97 98 99 100 101 102 103 104 105 106 107 108 109 110 111 112 113 114 115 116 117 118 ;
group=6 pent    rows=1 cols=22 Square ;
119 120 121 122 123 124 125 126 127 128 129 130 131 132 133 134 135 136 137 138 139 140 ;
group=1 N    rows=1 cols=1 Square ;
3 ;
group=2 N    rows=1 cols=1 Square ;
4 ;
group=3 N    rows=1 cols=1 Square ;
5 ;
group=4 N    rows=1 cols=1 Square ;
6 ;
group=5 N    rows=1 cols=1 Square ;
7 ;
group=6 N    rows=1 cols=1 Square ;
8 ;
design matrix constraints=140 covariates=9;
1 0 0 0 0 0 0 0 0;
0 1 0 0 0 0 0 0 0;
0 0 0 1 0 0 0 0 0;
0 0 0 1 1 0 0 0 0;
0 0 0 1 0 1 0 0 0;
0 0 0 1 0 0 1 0 0;
0 0 0 1 0 0 0 1 0;
0 0 0 1 0 0 0 0 1;
0 0 1 0 0 0 0 0 0;
0 0 1 0 0 0 0 0 0;
0 0 1 0 0 0 0 0 0;
0 0 1 0 0 0 0 0 0;
0 0 1 0 0 0 0 0 0;
0 0 1 0 0 0 0 0 0;
0 0 1 0 0 0 0 0 0;
0 0 1 0 0 0 0 0 0;
0 0 1 0 0 0 0 0 0;
0 0 1 0 0 0 0 0 0;
0 0 1 0 0 0 0 0 0;
0 0 1 0 0 0 0 0 0;
0 0 1 0 0 0 0 0 0;
0 0 1 0 0 0 0 0 0;
0 0 1 0 0 0 0 0 0;
0 0 1 0 0 0 0 0 0;
0 0 1 0 0 0 0 0 0;
0 0 1 0 0 0 0 0 0;
0 0 1 0 0 0 0 0 0;
0 0 1 0 0 0 0 0 0;
0 0 1 0 0 0 0 0 0;
0 0 1 0 0 0 0 0 0;
0 0 1 0 0 0 0 0 0;
0 0 1 0 0 0 0 0 0;
0 0 1 0 0 0 0 0 0;
0 0 1 0 0 0 0 0 0;
0 0 1 0 0 0 0 0 0;
0 0 1 0 0 0 0 0 0;
0 0 1 0 0 0 0 0 0;
0 0 1 0 0 0 0 0 0;
0 0 1 0 0 0 0 0 0;
0 0 1 0 0 0 0 0 0;
0 0 1 0 0 0 0 0 0;
0 0 1 0 0 0 0 0 0;
0 0 1 0 0 0 0 0 0;
0 0 1 0 0 0 0 0 0;
0 0 1 0 0 0 0 0 0;
0 0 1 0 0 0 0 0 0;
0 0 1 0 0 0 0 0 0;
0 0 1 0 0 0 0 0 0;
0 0 1 0 0 0 0 0 0;
0 0 1 0 0 0 0 0 0;
0 0 1 0 0 0 0 0 0;
0 0 1 0 0 0 0 0 0;
0 0 1 0 0 0 0 0 0;
0 0 1 0 0 0 0 0 0;
0 0 1 0 0 0 0 0 0;
0 0 1 0 0 0 0 0 0;
0 0 1 0 0 0 0 0 0;
0 0 1 0 0 0 0 0 0;
0 0 1 0 0 0 0 0 0;
0 0 1 0 0 0 0 0 0;
0 0 1 0 0 0 0 0 0;
0 0 1 0 0 0 0 0 0;
0 0 1 0 0 0 0 0 0;
0 0 1 0 0 0 0 0 0;
0 0 1 0 0 0 0 0 0;
0 0 1 0 0 0 0 0 0;
0 0 1 0 0 0 0 0 0;
0 0 1 0 0 0 0 0 0;
0 0 1 0 0 0 0 0 0;
0 0 1 0 0 0 0 0 0;
0 0 1 0 0 0 0 0 0;
0 0 1 0 0 0 0 0 0;
0 0 1 0 0 0 0 0 0;
0 0 1 0 0 0 0 0 0;
0 0 1 0 0 0 0 0 0;
0 0 1 0 0 0 0 0 0;
0 0 1 0 0 0 0 0 0;
0 0 1 0 0 0 0 0 0;
0 0 1 0 0 0 0 0 0;
0 0 1 0 0 0 0 0 0;
0 0 1 0 0 0 0 0 0;
0 0 1 0 0 0 0 0 0;
0 0 1 0 0 0 0 0 0;
0 0 1 0 0 0 0 0 0;
0 0 1 0 0 0 0 0 0;
0 0 1 0 0 0 0 0 0;
0 0 1 0 0 0 0 0 0;
0 0 1 0 0 0 0 0 0;
0 0 1 0 0 0 0 0 0;
0 0 1 0 0 0 0 0 0;
0 0 1 0 0 0 0 0 0;
0 0 1 0 0 0 0 0 0;
0 0 1 0 0 0 0 0 0;
0 0 1 0 0 0 0 0 0;
0 0 1 0 0 0 0 0 0;
0 0 1 0 0 0 0 0 0;
0 0 1 0 0 0 0 0 0;
0 0 1 0 0 0 0 0 0;
0 0 1 0 0 0 0 0 0;
0 0 1 0 0 0 0 0 0;
0 0 1 0 0 0 0 0 0;
0 0 1 0 0 0 0 0 0;
0 0 1 0 0 0 0 0 0;
0 0 1 0 0 0 0 0 0;
0 0 1 0 0 0 0 0 0;
0 0 1 0 0 0 0 0 0;
0 0 1 0 0 0 0 0 0;
0 0 1 0 0 0 0 0 0;
0 0 1 0 0 0 0 0 0;
0 0 1 0 0 0 0 0 0;
0 0 1 0 0 0 0 0 0;
0 0 1 0 0 0 0 0 0;
0 0 1 0 0 0 0 0 0;
0 0 1 0 0 0 0 0 0;
0 0 1 0 0 0 0 0 0;
0 0 1 0 0 0 0 0 0;
0 0 1 0 0 0 0 0 0;
0 0 1 0 0 0 0 0 0;
0 0 1 0 0 0 0 0 0;
0 0 1 0 0 0 0 0 0;
0 0 1 0 0 0 0 0 0;
0 0 1 0 0 0 0 0 0;
0 0 1 0 0 0 0 0 0;
0 0 1 0 0 0 0 0 0;
0 0 1 0 0 0 0 0 0;
0 0 1 0 0 0 0 0 0;
0 0 1 0 0 0 0 0 0;
0 0 1 0 0 0 0 0 0;
0 0 1 0 0 0 0 0 0;
0 0 1 0 0 0 0 0 0;
0 0 1 0 0 0 0 0 0;
0 0 1 0 0 0 0 0 0;
0 0 1 0 0 0 0 0 0;
0 0 1 0 0 0 0 0 0;
0 0 1 0 0 0 0 0 0;
0 0 1 0 0 0 0 0 0;
0 0 1 0 0 0 0 0 0;
0 0 1 0 0 0 0 0 0;
0 0 1 0 0 0 0 0 0;
0 0 1 0 0 0 0 0 0;
links=140;
Logit;
Logit;
Log;
Log;
Log;
Log;
Log;
Log;
mlogit(1);
mlogit(1);
mlogit(1);
mlogit(1);
mlogit(1);
mlogit(1);
mlogit(1);
mlogit(1);
mlogit(1);
mlogit(1);
mlogit(1);
mlogit(1);
mlogit(1);
mlogit(1);
mlogit(1);
mlogit(1);
mlogit(1);
mlogit(1);
mlogit(1);
mlogit(1);
mlogit(1);
mlogit(1);
mlogit(2);
mlogit(2);
mlogit(2);
mlogit(2);
mlogit(2);
mlogit(2);
mlogit(2);
mlogit(2);
mlogit(2);
mlogit(2);
mlogit(2);
mlogit(2);
mlogit(2);
mlogit(2);
mlogit(2);
mlogit(2);
mlogit(2);
mlogit(2);
mlogit(2);
mlogit(2);
mlogit(2);
mlogit(2);
mlogit(3);
mlogit(3);
mlogit(3);
mlogit(3);
mlogit(3);
mlogit(3);
mlogit(3);
mlogit(3);
mlogit(3);
mlogit(3);
mlogit(3);
mlogit(3);
mlogit(3);
mlogit(3);
mlogit(3);
mlogit(3);
mlogit(3);
mlogit(3);
mlogit(3);
mlogit(3);
mlogit(3);
mlogit(3);
mlogit(4);
mlogit(4);
mlogit(4);
mlogit(4);
mlogit(4);
mlogit(4);
mlogit(4);
mlogit(4);
mlogit(4);
mlogit(4);
mlogit(4);
mlogit(4);
mlogit(4);
mlogit(4);
mlogit(4);
mlogit(4);
mlogit(4);
mlogit(4);
mlogit(4);
mlogit(4);
mlogit(4);
mlogit(4);
mlogit(5);
mlogit(5);
mlogit(5);
mlogit(5);
mlogit(5);
mlogit(5);
mlogit(5);
mlogit(5);
mlogit(5);
mlogit(5);
mlogit(5);
mlogit(5);
mlogit(5);
mlogit(5);
mlogit(5);
mlogit(5);
mlogit(5);
mlogit(5);
mlogit(5);
mlogit(5);
mlogit(5);
mlogit(5);
mlogit(6);
mlogit(6);
mlogit(6);
mlogit(6);
mlogit(6);
mlogit(6);
mlogit(6);
mlogit(6);
mlogit(6);
mlogit(6);
mlogit(6);
mlogit(6);
mlogit(6);
mlogit(6);
mlogit(6);
mlogit(6);
mlogit(6);
mlogit(6);
mlogit(6);
mlogit(6);
mlogit(6);
mlogit(6);
blabel(1)=Phi:(Intercept);
blabel(2)=p:(Intercept);
blabel(3)=pent:(Intercept);
blabel(4)=N:(Intercept);
blabel(5)=N:groupS1;
blabel(6)=N:groupR2;
blabel(7)=N:groupS2;
blabel(8)=N:groupR3;
blabel(9)=N:groupS3;
rlabel(1)=Phi gR1 a0 t1;
rlabel(2)=p gR1 a0 t1;
rlabel(3)=N gR1 a0 t1;
rlabel(4)=N gS1 a0 t1;
rlabel(5)=N gR2 a0 t1;
rlabel(6)=N gS2 a0 t1;
rlabel(7)=N gR3 a0 t1;
rlabel(8)=N gS3 a0 t1;
rlabel(9)=pent gR1 a0.492772667542707 t1.49277266754271;
rlabel(10)=pent gR1 a1.01839684625493 t2.01839684625493;
rlabel(11)=pent gR1 a1.51116951379763 t2.51116951379763;
rlabel(12)=pent gR1 a2.00394218134034 t3.00394218134034;
rlabel(13)=pent gR1 a2.49671484888305 t3.49671484888305;
rlabel(14)=pent gR1 a3.02233902759527 t4.02233902759527;
rlabel(15)=pent gR1 a3.51511169513798 t4.51511169513798;
rlabel(16)=pent gR1 a4.0407358738502 t5.0407358738502;
rlabel(17)=pent gR1 a4.5335085413929 t5.5335085413929;
rlabel(18)=pent gR1 a5.35479632063075 t6.35479632063075;
rlabel(19)=pent gR1 a12.3193166885677 t13.3193166885677;
rlabel(20)=pent gR1 a13.3377135348226 t14.3377135348226;
rlabel(21)=pent gR1 a14.323258869908 t15.323258869908;
rlabel(22)=pent gR1 a15.0131406044678 t16.0131406044678;
rlabel(23)=pent gR1 a15.5059132720105 t16.5059132720105;
rlabel(24)=pent gR1 a16.0315374507227 t17.0315374507227;
rlabel(25)=pent gR1 a16.5243101182654 t17.5243101182654;
rlabel(26)=pent gR1 a25.3613666228647 t26.3613666228647;
rlabel(27)=pent gR1 a26.3469119579501 t27.3469119579501;
rlabel(28)=pent gR1 a27.365308804205 t28.365308804205;
rlabel(29)=pent gR1 a28.3837056504599 t29.3837056504599;
rlabel(30)=pent gR1 a29.3692509855453 t30.3692509855453;
rlabel(31)=pent gS1 a0.492772667542707 t1.49277266754271;
rlabel(32)=pent gS1 a1.01839684625493 t2.01839684625493;
rlabel(33)=pent gS1 a1.51116951379763 t2.51116951379763;
rlabel(34)=pent gS1 a2.00394218134034 t3.00394218134034;
rlabel(35)=pent gS1 a2.49671484888305 t3.49671484888305;
rlabel(36)=pent gS1 a3.02233902759527 t4.02233902759527;
rlabel(37)=pent gS1 a3.51511169513798 t4.51511169513798;
rlabel(38)=pent gS1 a4.0407358738502 t5.0407358738502;
rlabel(39)=pent gS1 a4.5335085413929 t5.5335085413929;
rlabel(40)=pent gS1 a5.35479632063075 t6.35479632063075;
rlabel(41)=pent gS1 a12.3193166885677 t13.3193166885677;
rlabel(42)=pent gS1 a13.3377135348226 t14.3377135348226;
rlabel(43)=pent gS1 a14.323258869908 t15.323258869908;
rlabel(44)=pent gS1 a15.0131406044678 t16.0131406044678;
rlabel(45)=pent gS1 a15.5059132720105 t16.5059132720105;
rlabel(46)=pent gS1 a16.0315374507227 t17.0315374507227;
rlabel(47)=pent gS1 a16.5243101182654 t17.5243101182654;
rlabel(48)=pent gS1 a25.3613666228647 t26.3613666228647;
rlabel(49)=pent gS1 a26.3469119579501 t27.3469119579501;
rlabel(50)=pent gS1 a27.365308804205 t28.365308804205;
rlabel(51)=pent gS1 a28.3837056504599 t29.3837056504599;
rlabel(52)=pent gS1 a29.3692509855453 t30.3692509855453;
rlabel(53)=pent gR2 a0.492772667542707 t1.49277266754271;
rlabel(54)=pent gR2 a1.01839684625493 t2.01839684625493;
rlabel(55)=pent gR2 a1.51116951379763 t2.51116951379763;
rlabel(56)=pent gR2 a2.00394218134034 t3.00394218134034;
rlabel(57)=pent gR2 a2.49671484888305 t3.49671484888305;
rlabel(58)=pent gR2 a3.02233902759527 t4.02233902759527;
rlabel(59)=pent gR2 a3.51511169513798 t4.51511169513798;
rlabel(60)=pent gR2 a4.0407358738502 t5.0407358738502;
rlabel(61)=pent gR2 a4.5335085413929 t5.5335085413929;
rlabel(62)=pent gR2 a5.35479632063075 t6.35479632063075;
rlabel(63)=pent gR2 a12.3193166885677 t13.3193166885677;
rlabel(64)=pent gR2 a13.3377135348226 t14.3377135348226;
rlabel(65)=pent gR2 a14.323258869908 t15.323258869908;
rlabel(66)=pent gR2 a15.0131406044678 t16.0131406044678;
rlabel(67)=pent gR2 a15.5059132720105 t16.5059132720105;
rlabel(68)=pent gR2 a16.0315374507227 t17.0315374507227;
rlabel(69)=pent gR2 a16.5243101182654 t17.5243101182654;
rlabel(70)=pent gR2 a25.3613666228647 t26.3613666228647;
rlabel(71)=pent gR2 a26.3469119579501 t27.3469119579501;
rlabel(72)=pent gR2 a27.365308804205 t28.365308804205;
rlabel(73)=pent gR2 a28.3837056504599 t29.3837056504599;
rlabel(74)=pent gR2 a29.3692509855453 t30.3692509855453;
rlabel(75)=pent gS2 a0.492772667542707 t1.49277266754271;
rlabel(76)=pent gS2 a1.01839684625493 t2.01839684625493;
rlabel(77)=pent gS2 a1.51116951379763 t2.51116951379763;
rlabel(78)=pent gS2 a2.00394218134034 t3.00394218134034;
rlabel(79)=pent gS2 a2.49671484888305 t3.49671484888305;
rlabel(80)=pent gS2 a3.02233902759527 t4.02233902759527;
rlabel(81)=pent gS2 a3.51511169513798 t4.51511169513798;
rlabel(82)=pent gS2 a4.0407358738502 t5.0407358738502;
rlabel(83)=pent gS2 a4.5335085413929 t5.5335085413929;
rlabel(84)=pent gS2 a5.35479632063075 t6.35479632063075;
rlabel(85)=pent gS2 a12.3193166885677 t13.3193166885677;
rlabel(86)=pent gS2 a13.3377135348226 t14.3377135348226;
rlabel(87)=pent gS2 a14.323258869908 t15.323258869908;
rlabel(88)=pent gS2 a15.0131406044678 t16.0131406044678;
rlabel(89)=pent gS2 a15.5059132720105 t16.5059132720105;
rlabel(90)=pent gS2 a16.0315374507227 t17.0315374507227;
rlabel(91)=pent gS2 a16.5243101182654 t17.5243101182654;
rlabel(92)=pent gS2 a25.3613666228647 t26.3613666228647;
rlabel(93)=pent gS2 a26.3469119579501 t27.3469119579501;
rlabel(94)=pent gS2 a27.365308804205 t28.365308804205;
rlabel(95)=pent gS2 a28.3837056504599 t29.3837056504599;
rlabel(96)=pent gS2 a29.3692509855453 t30.3692509855453;
rlabel(97)=pent gR3 a0.492772667542707 t1.49277266754271;
rlabel(98)=pent gR3 a1.01839684625493 t2.01839684625493;
rlabel(99)=pent gR3 a1.51116951379763 t2.51116951379763;
rlabel(100)=pent gR3 a2.00394218134034 t3.00394218134034;
rlabel(101)=pent gR3 a2.49671484888305 t3.49671484888305;
rlabel(102)=pent gR3 a3.02233902759527 t4.02233902759527;
rlabel(103)=pent gR3 a3.51511169513798 t4.51511169513798;
rlabel(104)=pent gR3 a4.0407358738502 t5.0407358738502;
rlabel(105)=pent gR3 a4.5335085413929 t5.5335085413929;
rlabel(106)=pent gR3 a5.35479632063075 t6.35479632063075;
rlabel(107)=pent gR3 a12.3193166885677 t13.3193166885677;
rlabel(108)=pent gR3 a13.3377135348226 t14.3377135348226;
rlabel(109)=pent gR3 a14.323258869908 t15.323258869908;
rlabel(110)=pent gR3 a15.0131406044678 t16.0131406044678;
rlabel(111)=pent gR3 a15.5059132720105 t16.5059132720105;
rlabel(112)=pent gR3 a16.0315374507227 t17.0315374507227;
rlabel(113)=pent gR3 a16.5243101182654 t17.5243101182654;
rlabel(114)=pent gR3 a25.3613666228647 t26.3613666228647;
rlabel(115)=pent gR3 a26.3469119579501 t27.3469119579501;
rlabel(116)=pent gR3 a27.365308804205 t28.365308804205;
rlabel(117)=pent gR3 a28.3837056504599 t29.3837056504599;
rlabel(118)=pent gR3 a29.3692509855453 t30.3692509855453;
rlabel(119)=pent gS3 a0.492772667542707 t1.49277266754271;
rlabel(120)=pent gS3 a1.01839684625493 t2.01839684625493;
rlabel(121)=pent gS3 a1.51116951379763 t2.51116951379763;
rlabel(122)=pent gS3 a2.00394218134034 t3.00394218134034;
rlabel(123)=pent gS3 a2.49671484888305 t3.49671484888305;
rlabel(124)=pent gS3 a3.02233902759527 t4.02233902759527;
rlabel(125)=pent gS3 a3.51511169513798 t4.51511169513798;
rlabel(126)=pent gS3 a4.0407358738502 t5.0407358738502;
rlabel(127)=pent gS3 a4.5335085413929 t5.5335085413929;
rlabel(128)=pent gS3 a5.35479632063075 t6.35479632063075;
rlabel(129)=pent gS3 a12.3193166885677 t13.3193166885677;
rlabel(130)=pent gS3 a13.3377135348226 t14.3377135348226;
rlabel(131)=pent gS3 a14.323258869908 t15.323258869908;
rlabel(132)=pent gS3 a15.0131406044678 t16.0131406044678;
rlabel(133)=pent gS3 a15.5059132720105 t16.5059132720105;
rlabel(134)=pent gS3 a16.0315374507227 t17.0315374507227;
rlabel(135)=pent gS3 a16.5243101182654 t17.5243101182654;
rlabel(136)=pent gS3 a25.3613666228647 t26.3613666228647;
rlabel(137)=pent gS3 a26.3469119579501 t27.3469119579501;
rlabel(138)=pent gS3 a27.365308804205 t28.365308804205;
rlabel(139)=pent gS3 a28.3837056504599 t29.3837056504599;
rlabel(140)=pent gS3 a29.3692509855453 t30.3692509855453;
proc stop;
